c uprop, v00.0, 
c reading from data/prog67.c.cnf
c done reading: 0.002346
p cnf 203 996
-108 -129 0
-108 -125 0
108 125 129 0
-102 125 129 0
-102 -125 -129 0
102 125 -129 0
102 -125 129 0
108 -120 0
-118 -120 0
-108 118 120 0
-108 -113 118 0
108 -113 -118 0
108 113 118 0
-108 113 -118 0
-109 120 0
-106 -109 0
106 109 -120 0
-104 106 -120 0
-104 -106 120 0
104 106 120 0
104 -106 -120 0
-103 109 0
-100 -103 0
100 103 -109 0
100 -109 -127 0
-100 109 -127 0
100 109 127 0
-100 -109 127 0
103 -131 0
-122 -131 0
-103 122 131 0
-103 122 -132 0
103 -122 -132 0
103 122 132 0
-103 -122 132 0
131 -133 0
-115 -133 0
115 -131 133 0
115 -131 -134 0
-115 131 -134 0
115 131 134 0
-115 -131 134 0
133 -135 0
-111 -135 0
111 -133 135 0
111 -133 -136 0
-111 133 -136 0
111 133 136 0
-111 -133 136 0
100 -137 0
129 -137 0
-100 -129 137 0
-100 -129 -138 0
100 129 -138 0
-100 129 138 0
100 -129 138 0
-122 -125 139 0
-122 -137 139 0
-125 -137 139 0
122 125 -139 0
122 137 -139 0
125 137 -139 0
122 -139 -140 0
125 -139 -140 0
137 -139 -140 0
-122 139 140 0
-125 139 140 0
-137 139 140 0
-122 -125 -137 140 0
122 125 137 -140 0
-115 -118 141 0
-115 -139 141 0
-118 -139 141 0
115 118 -141 0
115 139 -141 0
118 139 -141 0
115 -141 -142 0
118 -141 -142 0
139 -141 -142 0
-115 141 142 0
-118 141 142 0
-139 141 142 0
-115 -118 -139 142 0
115 118 139 -142 0
-106 -111 143 0
-111 -141 143 0
-106 -141 143 0
106 111 -143 0
111 141 -143 0
106 141 -143 0
-98 111 -143 0
-98 106 -143 0
-98 141 -143 0
98 -111 143 0
98 -106 143 0
98 -141 143 0
98 -106 -111 -141 0
-98 106 111 141 0
-97 100 0
-97 143 0
97 -100 -143 0
-96 -100 -143 0
-96 100 143 0
96 -100 143 0
96 100 -143 0
-95 122 0
-95 97 0
95 -97 -122 0
-94 -97 -122 0
-94 97 122 0
94 97 -122 0
94 -97 122 0
-93 115 0
-93 95 0
93 -95 -115 0
-95 -115 -128 0
95 115 -128 0
95 -115 128 0
-95 115 128 0
111 -124 0
93 -124 0
-93 -111 124 0
-93 -111 -117 0
93 111 -117 0
93 -111 117 0
-93 111 117 0
-105 -129 0
-105 -125 0
105 125 129 0
-99 125 129 0
-99 -125 -129 0
99 125 -129 0
99 -125 129 0
105 -121 0
-118 -121 0
-105 118 121 0
-105 -114 118 0
105 -114 -118 0
105 114 118 0
-105 114 -118 0
-110 121 0
-106 -110 0
106 110 -121 0
-92 106 -121 0
-92 -106 121 0
92 106 121 0
92 -106 -121 0
-91 110 0
-91 -138 0
91 -110 138 0
-90 -110 138 0
-90 110 -138 0
90 110 138 0
90 -110 -138 0
-89 91 0
-89 -140 0
89 -91 140 0
-88 -91 140 0
-88 91 -140 0
88 91 140 0
88 -91 -140 0
-87 89 0
-87 -142 0
87 -89 142 0
-86 -89 142 0
-86 89 -142 0
86 89 142 0
86 -89 -142 0
-85 87 0
-85 -98 0
85 -87 98 0
-84 -87 98 0
-84 87 -98 0
84 87 98 0
84 -87 -98 0
-83 85 0
-83 -96 0
83 -85 96 0
-82 -85 96 0
-82 85 -96 0
82 85 96 0
82 -85 -96 0
-81 83 0
-81 -94 0
81 -83 94 0
-80 -83 94 0
-80 83 -94 0
80 83 94 0
80 -83 -94 0
-79 81 0
-79 -128 0
79 -81 128 0
-78 -81 128 0
-78 81 -128 0
78 81 128 0
78 -81 -128 0
-77 79 0
-77 -117 0
77 -79 117 0
-79 117 -144 0
79 -117 -144 0
79 117 144 0
-79 -117 144 0
77 -145 0
-124 -145 0
-77 124 145 0
-77 124 -146 0
77 -124 -146 0
77 124 146 0
-77 -124 146 0
-147 -149 0
-149 -150 0
147 149 150 0
147 150 -152 0
-147 -150 -152 0
-147 150 152 0
147 -150 152 0
149 -153 0
-153 -154 0
-149 153 154 0
-149 154 -156 0
149 -154 -156 0
149 154 156 0
-149 -154 156 0
153 -157 0
-157 -158 0
-153 157 158 0
-153 158 -160 0
153 -158 -160 0
153 158 160 0
-153 -158 160 0
157 -161 0
-161 -162 0
-157 161 162 0
-157 162 -164 0
157 -162 -164 0
157 162 164 0
-157 -162 164 0
161 -165 0
-165 -166 0
-161 165 166 0
-161 166 -168 0
161 -166 -168 0
161 166 168 0
-161 -166 168 0
165 -169 0
-169 -170 0
-165 169 170 0
-165 170 -172 0
165 -170 -172 0
165 170 172 0
-165 -170 172 0
169 -173 0
-173 -174 0
-169 173 174 0
-169 174 -176 0
169 -174 -176 0
169 174 176 0
-169 -174 176 0
150 -177 0
147 -177 0
-147 -150 177 0
-147 -150 -178 0
147 150 -178 0
147 -150 178 0
-147 150 178 0
-150 -154 179 0
-154 -177 179 0
-150 -177 179 0
150 154 -179 0
154 177 -179 0
150 177 -179 0
154 -179 -180 0
150 -179 -180 0
177 -179 -180 0
-154 179 180 0
-150 179 180 0
-177 179 180 0
-150 -154 -177 180 0
150 154 177 -180 0
-154 -158 181 0
-158 -179 181 0
-154 -179 181 0
154 158 -181 0
158 179 -181 0
154 179 -181 0
158 -181 -182 0
154 -181 -182 0
179 -181 -182 0
-158 181 182 0
-154 181 182 0
-179 181 182 0
-154 -158 -179 182 0
154 158 179 -182 0
-158 -162 183 0
-162 -181 183 0
-158 -181 183 0
158 162 -183 0
162 181 -183 0
158 181 -183 0
162 -183 -184 0
158 -183 -184 0
181 -183 -184 0
-162 183 184 0
-158 183 184 0
-181 183 184 0
-158 -162 -181 184 0
158 162 181 -184 0
-162 -166 185 0
-166 -183 185 0
-162 -183 185 0
162 166 -185 0
166 183 -185 0
162 183 -185 0
166 -185 -186 0
162 -185 -186 0
183 -185 -186 0
-166 185 186 0
-162 185 186 0
-183 185 186 0
-162 -166 -183 186 0
162 166 183 -186 0
-166 -170 187 0
-170 -185 187 0
-166 -185 187 0
166 170 -187 0
170 185 -187 0
166 185 -187 0
170 -187 -188 0
166 -187 -188 0
185 -187 -188 0
-170 187 188 0
-166 187 188 0
-185 187 188 0
-166 -170 -185 188 0
166 170 185 -188 0
-170 -174 189 0
-174 -187 189 0
-170 -187 189 0
170 174 -189 0
174 187 -189 0
170 187 -189 0
174 -189 -190 0
170 -189 -190 0
187 -189 -190 0
-174 189 190 0
-170 189 190 0
-187 189 190 0
-170 -174 -187 190 0
170 174 187 -190 0
174 -191 0
189 -191 0
-174 -189 191 0
-174 -189 -192 0
174 189 -192 0
-174 189 192 0
174 -189 192 0
180 -193 0
147 -193 0
-147 -180 193 0
-147 -180 -194 0
147 180 -194 0
147 -180 194 0
-147 180 194 0
-150 -182 195 0
-182 -193 195 0
-150 -193 195 0
150 182 -195 0
182 193 -195 0
150 193 -195 0
182 -195 -196 0
150 -195 -196 0
193 -195 -196 0
-182 195 196 0
-150 195 196 0
-193 195 196 0
-150 -182 -193 196 0
150 182 193 -196 0
-154 -184 197 0
-184 -195 197 0
-154 -195 197 0
154 184 -197 0
184 195 -197 0
154 195 -197 0
184 -197 -198 0
154 -197 -198 0
195 -197 -198 0
-184 197 198 0
-154 197 198 0
-195 197 198 0
-154 -184 -195 198 0
154 184 195 -198 0
-158 -186 199 0
-186 -197 199 0
-158 -197 199 0
158 186 -199 0
186 197 -199 0
158 197 -199 0
186 -199 -200 0
158 -199 -200 0
197 -199 -200 0
-186 199 200 0
-158 199 200 0
-197 199 200 0
-158 -186 -197 200 0
158 186 197 -200 0
-162 -188 201 0
-188 -199 201 0
-162 -199 201 0
162 188 -201 0
188 199 -201 0
162 199 -201 0
188 -201 -202 0
162 -201 -202 0
199 -201 -202 0
-188 201 202 0
-162 201 202 0
-199 201 202 0
-162 -188 -199 202 0
162 188 199 -202 0
-166 -190 203 0
-190 -201 203 0
-166 -201 203 0
166 190 -203 0
190 201 -203 0
166 201 -203 0
-130 190 -203 0
-130 166 -203 0
-130 201 -203 0
130 -190 203 0
130 -166 203 0
130 -201 203 0
130 -166 -190 -201 0
-130 166 190 201 0
126 -170 -192 0
126 -192 -203 0
126 -170 -203 0
-126 170 192 0
-126 192 203 0
-126 170 203 0
-119 -126 192 0
-119 -126 170 0
-119 -126 203 0
119 126 -192 0
119 126 -170 0
119 126 -203 0
119 -170 -192 -203 0
-119 170 192 203 0
107 -174 -191 0
107 -126 -191 0
107 -126 -174 0
-107 174 191 0
-107 126 191 0
-107 126 174 0
-101 -107 191 0
-101 -107 174 0
-101 -107 126 0
101 107 -191 0
101 107 -174 0
101 107 -126 0
101 -126 -174 -191 0
-101 126 174 191 0
-123 196 0
-123 147 0
123 -147 -196 0
-116 -147 -196 0
-116 147 196 0
116 147 -196 0
116 -147 196 0
112 -150 -198 0
112 -123 -198 0
112 -123 -150 0
-112 150 198 0
-112 123 198 0
-112 123 150 0
-112 -148 198 0
-112 -148 150 0
-112 123 -148 0
112 148 -198 0
112 148 -150 0
112 -123 148 0
-123 148 -150 -198 0
123 -148 150 198 0
151 -154 -200 0
-112 151 -200 0
-112 151 -154 0
-151 154 200 0
112 -151 200 0
112 -151 154 0
-151 -155 200 0
-151 154 -155 0
112 -151 -155 0
151 155 -200 0
151 -154 155 0
-112 151 155 0
-112 -154 155 -200 0
112 154 -155 200 0
-158 159 -202 0
-151 159 -202 0
-151 -158 159 0
158 -159 202 0
151 -159 202 0
151 158 -159 0
-159 -163 202 0
158 -159 -163 0
151 -159 -163 0
159 163 -202 0
-158 159 163 0
-151 159 163 0
-151 -158 163 -202 0
151 158 -163 202 0
-130 -162 167 0
-130 -159 167 0
-159 -162 167 0
130 162 -167 0
130 159 -167 0
159 162 -167 0
130 -167 -171 0
162 -167 -171 0
159 -167 -171 0
-130 167 171 0
-162 167 171 0
-159 167 171 0
-130 -159 -162 171 0
130 159 162 -171 0
-119 -166 175 0
-119 -167 175 0
-166 -167 175 0
119 166 -175 0
119 167 -175 0
166 167 -175 0
-76 119 -175 0
-76 166 -175 0
-76 167 -175 0
76 -119 175 0
76 -166 175 0
76 -167 175 0
76 -119 -166 -167 0
-76 119 166 167 0
75 -101 -170 0
75 -101 -175 0
75 -170 -175 0
-75 101 170 0
-75 101 175 0
-75 170 175 0
-74 -75 101 0
-74 -75 170 0
-74 -75 175 0
74 75 -101 0
74 75 -170 0
74 75 -175 0
74 -101 -170 -175 0
-74 101 170 175 0
73 -107 -174 0
73 -75 -107 0
73 -75 -174 0
-73 107 174 0
-73 75 107 0
-73 75 174 0
-72 -73 107 0
-72 -73 174 0
-72 -73 75 0
72 73 -107 0
72 73 -174 0
72 73 -75 0
72 -75 -107 -174 0
-72 75 107 174 0
-71 148 0
-71 147 0
71 -147 -148 0
-70 -147 -148 0
-70 147 148 0
70 147 -148 0
70 -147 148 0
69 -150 -155 0
69 -71 -155 0
69 -71 -150 0
-69 150 155 0
-69 71 155 0
-69 71 150 0
-68 -69 155 0
-68 -69 150 0
-68 -69 71 0
68 69 -155 0
68 69 -150 0
68 69 -71 0
68 -71 -150 -155 0
-68 71 150 155 0
67 -154 -163 0
67 -69 -163 0
67 -69 -154 0
-67 154 163 0
-67 69 163 0
-67 69 154 0
-66 -67 163 0
-66 -67 154 0
-66 -67 69 0
66 67 -163 0
66 67 -154 0
66 67 -69 0
66 -69 -154 -163 0
-66 69 154 163 0
65 -158 -171 0
65 -67 -171 0
65 -67 -158 0
-65 158 171 0
-65 67 171 0
-65 67 158 0
-64 -65 171 0
-64 -65 158 0
-64 -65 67 0
64 65 -171 0
64 65 -158 0
64 65 -67 0
64 -67 -158 -171 0
-64 67 158 171 0
63 -76 -162 0
63 -65 -76 0
63 -65 -162 0
-63 76 162 0
-63 65 76 0
-63 65 162 0
-62 -63 76 0
-62 -63 162 0
-62 -63 65 0
62 63 -76 0
62 63 -162 0
62 63 -65 0
62 -65 -76 -162 0
-62 65 76 162 0
61 -74 -166 0
61 -63 -74 0
61 -63 -166 0
-61 74 166 0
-61 63 74 0
-61 63 166 0
-60 -61 74 0
-60 -61 166 0
-60 -61 63 0
60 61 -74 0
60 61 -166 0
60 61 -63 0
60 -63 -74 -166 0
-60 63 74 166 0
59 -72 -170 0
59 -61 -72 0
59 -61 -170 0
-59 72 170 0
-59 61 72 0
-59 61 170 0
-58 -59 72 0
-58 -59 170 0
-58 -59 61 0
58 59 -72 0
58 59 -170 0
58 59 -61 0
58 -61 -72 -170 0
-58 61 72 170 0
57 -73 -174 0
57 -59 -73 0
57 -59 -174 0
-57 73 174 0
-57 59 73 0
-57 59 174 0
-56 -57 73 0
-56 -57 174 0
-56 -57 59 0
56 57 -73 0
56 57 -174 0
56 57 -59 0
56 -59 -73 -174 0
-56 59 73 174 0
-55 68 0
-55 147 0
55 -68 -147 0
-54 -68 -147 0
-54 68 147 0
54 -68 147 0
54 68 -147 0
53 -66 -150 0
53 -55 -66 0
53 -55 -150 0
-53 66 150 0
-53 55 66 0
-53 55 150 0
-52 -53 66 0
-52 -53 150 0
-52 -53 55 0
52 53 -66 0
52 53 -150 0
52 53 -55 0
52 -55 -66 -150 0
-52 55 66 150 0
51 -64 -154 0
51 -53 -64 0
51 -53 -154 0
-51 64 154 0
-51 53 64 0
-51 53 154 0
-50 -51 64 0
-50 -51 154 0
-50 -51 53 0
50 51 -64 0
50 51 -154 0
50 51 -53 0
50 -53 -64 -154 0
-50 53 64 154 0
49 -62 -158 0
49 -51 -62 0
49 -51 -158 0
-49 62 158 0
-49 51 62 0
-49 51 158 0
-48 -49 62 0
-48 -49 158 0
-48 -49 51 0
48 49 -62 0
48 49 -158 0
48 49 -51 0
48 -51 -62 -158 0
-48 51 62 158 0
47 -60 -162 0
47 -49 -60 0
47 -49 -162 0
-47 60 162 0
-47 49 60 0
-47 49 162 0
-46 -47 60 0
-46 -47 162 0
-46 -47 49 0
46 47 -60 0
46 47 -162 0
46 47 -49 0
46 -49 -60 -162 0
-46 49 60 162 0
45 -58 -166 0
45 -47 -58 0
45 -47 -166 0
-45 58 166 0
-45 47 58 0
-45 47 166 0
-44 -45 58 0
-44 -45 166 0
-44 -45 47 0
44 45 -58 0
44 45 -166 0
44 45 -47 0
44 -47 -58 -166 0
-44 47 58 166 0
43 -56 -170 0
43 -45 -56 0
43 -45 -170 0
-43 56 170 0
-43 45 56 0
-43 45 170 0
-42 -43 56 0
-42 -43 170 0
-42 -43 45 0
42 43 -56 0
42 43 -170 0
42 43 -45 0
42 -45 -56 -170 0
-42 45 56 170 0
41 -57 -174 0
41 -43 -57 0
41 -43 -174 0
-41 57 174 0
-41 43 57 0
-41 43 174 0
-40 -41 57 0
-40 -41 174 0
-40 -41 43 0
40 41 -57 0
40 41 -174 0
40 41 -43 0
40 -43 -57 -174 0
-40 43 57 174 0
-39 -147 0
-39 -178 0
39 147 178 0
-38 147 178 0
-38 -147 -178 0
38 -147 178 0
38 147 -178 0
-37 39 0
-37 -194 0
37 -39 194 0
-36 -39 194 0
-36 39 -194 0
36 39 194 0
36 -39 -194 0
-35 37 0
-35 -116 0
35 -37 116 0
-34 -37 116 0
-34 37 -116 0
34 37 116 0
34 -37 -116 0
-33 35 0
-33 -70 0
33 -35 70 0
-32 -35 70 0
-32 35 -70 0
32 35 70 0
32 -35 -70 0
-31 33 0
-31 -54 0
31 -33 54 0
-30 -33 54 0
-30 33 -54 0
30 33 54 0
30 -33 -54 0
-29 31 0
-29 -52 0
29 -31 52 0
-28 -31 52 0
-28 31 -52 0
28 31 52 0
28 -31 -52 0
-27 29 0
-27 -50 0
27 -29 50 0
-26 -29 50 0
-26 29 -50 0
26 29 50 0
26 -29 -50 0
-25 27 0
-25 -48 0
25 -27 48 0
-24 -27 48 0
-24 27 -48 0
24 27 48 0
24 -27 -48 0
-23 25 0
-23 -46 0
23 -25 46 0
-22 -25 46 0
-22 25 -46 0
22 25 46 0
22 -25 -46 0
-21 23 0
-21 -44 0
21 -23 44 0
-20 -23 44 0
-20 23 -44 0
20 23 44 0
20 -23 -44 0
-19 21 0
-19 -42 0
19 -21 42 0
-18 -21 42 0
-18 21 -42 0
18 21 42 0
18 -21 -42 0
-17 19 0
-17 -40 0
17 -19 40 0
-16 -19 40 0
-16 19 -40 0
16 19 40 0
16 -19 -40 0
-15 17 0
-15 -41 0
15 -17 41 0
-14 -17 41 0
-14 17 -41 0
14 17 41 0
14 -17 -41 0
-13 129 0
-13 147 0
13 -129 -147 0
-129 147 0
129 -147 0
12 -125 -178 0
12 -13 -125 0
12 -13 -178 0
-12 125 178 0
-12 13 125 0
-12 13 178 0
-12 125 0
-12 178 0
-12 13 0
13 125 178 0
11 -118 -194 0
11 -12 -118 0
11 -12 -194 0
-11 118 194 0
-11 12 118 0
-11 12 194 0
11 -118 0
11 -194 0
11 -12 0
-12 -118 -194 0
10 -106 -116 0
10 -11 -106 0
10 -11 -116 0
-10 106 116 0
-10 11 106 0
-10 11 116 0
-10 106 0
-10 116 0
-10 11 0
11 106 116 0
9 -70 -138 0
9 -10 -138 0
9 -10 -70 0
-9 70 138 0
-9 10 138 0
-9 10 70 0
9 -138 0
9 -70 0
9 -10 0
-10 -70 -138 0
8 -54 -140 0
8 -9 -140 0
8 -9 -54 0
-8 54 140 0
-8 9 140 0
-8 9 54 0
-8 140 0
-8 54 0
-8 9 0
9 54 140 0
7 -52 -142 0
7 -8 -142 0
7 -8 -52 0
-7 52 142 0
-7 8 142 0
-7 8 52 0
7 -142 0
7 -52 0
7 -8 0
-8 -52 -142 0
6 -50 -98 0
6 -7 -98 0
6 -7 -50 0
-6 50 98 0
-6 7 98 0
-6 7 50 0
6 -98 0
6 -50 0
6 -7 0
-7 -50 -98 0
5 -48 -96 0
5 -6 -96 0
5 -6 -48 0
-5 48 96 0
-5 6 96 0
-5 6 48 0
5 -96 0
5 -48 0
5 -6 0
-6 -48 -96 0
4 -46 -94 0
4 -5 -94 0
4 -5 -46 0
-4 46 94 0
-4 5 94 0
-4 5 46 0
4 -94 0
4 -46 0
4 -5 0
-5 -46 -94 0
3 -44 -128 0
3 -4 -128 0
3 -4 -44 0
-3 44 128 0
-3 4 128 0
-3 4 44 0
3 -128 0
3 -44 0
3 -4 0
-4 -44 -128 0
2 -42 -117 0
2 -3 -117 0
2 -3 -42 0
-2 42 117 0
-2 3 117 0
-2 3 42 0
2 -117 0
2 -42 0
2 -3 0
-3 -42 -117 0
1 -40 -124 0
1 -2 -124 0
1 -2 -40 0
-1 40 124 0
-1 2 124 0
-1 2 40 0
1 -124 0
1 -40 0
1 -2 0
-2 -40 -124 0
-1 -41 0
1 -41 0
-1 41 0
